(set-info :smt-lib-version 2.6)
(set-info :category "crafted")
(set-logic QF_FFA)
(define-sort FF0 () (_ FiniteField 52435875175126190479447740508185965837690552500527637822603658699938581184513))
(declare-fun out_alt () FF0)
(declare-fun _17_alt () FF0)
(declare-fun _16_alt () FF0)
(declare-fun _13_alt () FF0)
(declare-fun _15_alt () FF0)
(declare-fun _3_alt () FF0)
(declare-fun _6_alt () FF0)
(declare-fun _4_alt () FF0)
(declare-fun _12_alt () FF0)
(declare-fun _0_alt () FF0)
(declare-fun _11_alt () FF0)
(declare-fun _10_alt () FF0)
(declare-fun _2_alt () FF0)
(declare-fun _9_alt () FF0)
(declare-fun _5_alt () FF0)
(declare-fun _8_alt () FF0)
(declare-fun _1_alt () FF0)
(declare-fun _7_alt () FF0)
(declare-fun out () FF0)
(declare-fun _17 () FF0)
(declare-fun _16 () FF0)
(declare-fun _13 () FF0)
(declare-fun _15 () FF0)
(declare-fun _3 () FF0)
(declare-fun _6 () FF0)
(declare-fun _4 () FF0)
(declare-fun _12 () FF0)
(declare-fun _0 () FF0)
(declare-fun _11 () FF0)
(declare-fun _10 () FF0)
(declare-fun _2 () FF0)
(declare-fun _9 () FF0)
(declare-fun _5 () FF0)
(declare-fun _8 () FF0)
(declare-fun _1 () FF0)
(declare-fun _7 () FF0)
(assert 
  (let ((let0 out_alt))
  (let ((let1 _17_alt))
  (let ((let2 (= let1 let0)))
  (let ((let3 (as ff1 FF0)))
  (let ((let4 (as ff52435875175126190479447740508185965837690552500527637822603658699938581184512 FF0)))
  (let ((let5 (ff.mul let1 let4)))
  (let ((let6 _16_alt))
  (let ((let7 _13_alt))
  (let ((let8 (ff.mul let7 let4)))
  (let ((let9 (ff.add let8 let6 let5 let3)))
  (let ((let10 (ff.add let8 let3)))
  (let ((let11 (ff.mul let6 let10)))
  (let ((let12 (= let11 let9)))
  (let ((let13 (ff.mul let6 let4)))
  (let ((let14 _15_alt))
  (let ((let15 _3_alt))
  (let ((let16 (ff.add let15 let14 let13)))
  (let ((let17 (ff.mul let15 let14)))
  (let ((let18 (= let17 let16)))
  (let ((let19 (ff.mul let14 let4)))
  (let ((let20 _6_alt))
  (let ((let21 (ff.mul let20 let4)))
  (let ((let22 _4_alt))
  (let ((let23 (ff.add let22 let21 let19 let3)))
  (let ((let24 (ff.add let21 let3)))
  (let ((let25 (ff.mul let24 let22)))
  (let ((let26 (= let25 let23)))
  (let ((let27 _12_alt))
  (let ((let28 _0_alt))
  (let ((let29 (ff.mul let28 let4)))
  (let ((let30 (ff.add let29 let27)))
  (let ((let31 (ff.mul let30 let30)))
  (let ((let32 (= let31 let7)))
  (let ((let33 _11_alt))
  (let ((let34 (ff.mul let33 let4)))
  (let ((let35 _10_alt))
  (let ((let36 _2_alt))
  (let ((let37 (ff.add let36 let35 let34)))
  (let ((let38 (ff.mul let35 let36)))
  (let ((let39 (= let38 let37)))
  (let ((let40 (ff.mul let35 let4)))
  (let ((let41 _9_alt))
  (let ((let42 _5_alt))
  (let ((let43 (ff.add let42 let41 let40)))
  (let ((let44 (ff.mul let41 let42)))
  (let ((let45 (= let44 let43)))
  (let ((let46 (ff.mul let41 let4)))
  (let ((let47 _8_alt))
  (let ((let48 (ff.add let22 let47 let46)))
  (let ((let49 (ff.mul let47 let22)))
  (let ((let50 (= let49 let48)))
  (let ((let51 (ff.mul let47 let4)))
  (let ((let52 _1_alt))
  (let ((let53 (ff.add let52 let36 let51)))
  (let ((let54 (ff.mul let36 let52)))
  (let ((let55 (= let54 let53)))
  (let ((let56 _7_alt))
  (let ((let57 (ff.mul let56 let56)))
  (let ((let58 (= let57 let56)))
  (let ((let59 (ff.mul let20 let20)))
  (let ((let60 (= let59 let20)))
  (let ((let61 (ff.mul let42 let42)))
  (let ((let62 (= let61 let42)))
  (let ((let63 (ff.mul let22 let22)))
  (let ((let64 (= let63 let22)))
  (let ((let65 (ff.mul let15 let15)))
  (let ((let66 (= let65 let15)))
  (let ((let67 (ff.mul let36 let36)))
  (let ((let68 (= let67 let36)))
  (let ((let69 (ff.mul let52 let52)))
  (let ((let70 (= let69 let52)))
  (let ((let71 (ff.mul let28 let28)))
  (let ((let72 (= let71 let28)))
  (let ((let73 (and let72 let70 let68 let66 let64 let62 let60 let58 let55 let50 let45 let39 let32 let26 let18 let12 let2)))
  (let ((let74 out))
  (let ((let75 _17))
  (let ((let76 (= let75 let74)))
  (let ((let77 (ff.mul let75 let4)))
  (let ((let78 _16))
  (let ((let79 _13))
  (let ((let80 (ff.mul let79 let4)))
  (let ((let81 (ff.add let80 let78 let77 let3)))
  (let ((let82 (ff.add let80 let3)))
  (let ((let83 (ff.mul let78 let82)))
  (let ((let84 (= let83 let81)))
  (let ((let85 (ff.mul let78 let4)))
  (let ((let86 _15))
  (let ((let87 _3))
  (let ((let88 (ff.add let87 let86 let85)))
  (let ((let89 (ff.mul let87 let86)))
  (let ((let90 (= let89 let88)))
  (let ((let91 (ff.mul let86 let4)))
  (let ((let92 _6))
  (let ((let93 (ff.mul let92 let4)))
  (let ((let94 _4))
  (let ((let95 (ff.add let94 let93 let91 let3)))
  (let ((let96 (ff.add let93 let3)))
  (let ((let97 (ff.mul let96 let94)))
  (let ((let98 (= let97 let95)))
  (let ((let99 _12))
  (let ((let100 _0))
  (let ((let101 (ff.mul let100 let4)))
  (let ((let102 (ff.add let101 let99)))
  (let ((let103 (ff.mul let102 let102)))
  (let ((let104 (= let103 let79)))
  (let ((let105 _11))
  (let ((let106 (ff.mul let105 let4)))
  (let ((let107 _10))
  (let ((let108 _2))
  (let ((let109 (ff.add let108 let107 let106)))
  (let ((let110 (ff.mul let107 let108)))
  (let ((let111 (= let110 let109)))
  (let ((let112 (ff.mul let107 let4)))
  (let ((let113 _9))
  (let ((let114 _5))
  (let ((let115 (ff.add let114 let113 let112)))
  (let ((let116 (ff.mul let113 let114)))
  (let ((let117 (= let116 let115)))
  (let ((let118 (ff.mul let113 let4)))
  (let ((let119 _8))
  (let ((let120 (ff.add let94 let119 let118)))
  (let ((let121 (ff.mul let119 let94)))
  (let ((let122 (= let121 let120)))
  (let ((let123 (ff.mul let119 let4)))
  (let ((let124 _1))
  (let ((let125 (ff.add let124 let108 let123)))
  (let ((let126 (ff.mul let108 let124)))
  (let ((let127 (= let126 let125)))
  (let ((let128 _7))
  (let ((let129 (ff.mul let128 let128)))
  (let ((let130 (= let129 let128)))
  (let ((let131 (ff.mul let92 let92)))
  (let ((let132 (= let131 let92)))
  (let ((let133 (ff.mul let114 let114)))
  (let ((let134 (= let133 let114)))
  (let ((let135 (ff.mul let94 let94)))
  (let ((let136 (= let135 let94)))
  (let ((let137 (ff.mul let87 let87)))
  (let ((let138 (= let137 let87)))
  (let ((let139 (ff.mul let108 let108)))
  (let ((let140 (= let139 let108)))
  (let ((let141 (ff.mul let124 let124)))
  (let ((let142 (= let141 let124)))
  (let ((let143 (ff.mul let100 let100)))
  (let ((let144 (= let143 let100)))
  (let ((let145 (and let144 let142 let140 let138 let136 let134 let132 let130 let127 let122 let117 let111 let104 let98 let90 let84 let76)))
  (let ((let146 (= let74 let0)))
  (let ((let147 (not let146)))
  (let ((let148 (= let94 let22)))
  (let ((let149 (= let92 let20)))
  (let ((let150 (= let87 let15)))
  (let ((let151 (= let100 let28)))
  (let ((let152 (= let128 let56)))
  (let ((let153 (= let114 let42)))
  (let ((let154 (= let108 let36)))
  (let ((let155 (= let124 let52)))
  (let ((let156 (and let155 let154 let153 let152 let151 let150 let149 let148)))
  (let ((let157 (and let156 let147 let145 let73)))
  let157
))))))))))))))))))))))))))))))))))))))))))))))))))))))))))))))))))))))))))))))))))))))))))))))))))))))))))))))))))))))))))))))))))))))))))))))))))))))))))))))
)
(check-sat)
